
Log for 'c:\users\zzhu3\appdata\local\temp\tmpsq7srz.pyomo.lp' Clone_1 (V12.7.1.0) Mon Nov 27 12:13:58 2017

Tried aggregator 0 times.
No LP presolve or aggregator reductions.
Presolve time = 0.00 sec. (0.23 ticks)
Parallel mode: using up to 6 threads for barrier.
Number of nonzeros in lower triangle of A*A' = 4093
Using Approximate Minimum Degree ordering
Total time for automatic ordering = 0.00 sec. (0.36 ticks)
Summary statistics for Cholesky factor:
  Threads                   = 6
  Rows in Factor            = 759
  Integer space required    = 2449
  Total non-zeros in factor = 13554
  Total FP ops to factor    = 301656
 Itn      Primal Obj        Dual Obj  Prim Inf Upper Inf  Dual Inf Inf Ratio
   0 -2.5945000e+003 -3.1575500e+003 1.69e+003 5.63e+002 1.05e+003 1.00e+000
   1 -1.1431784e+003 -1.7634557e+003 7.49e+002 2.49e+002 5.87e+002 1.64e+000
 Barrier aborted.
Barrier time = 0.00 sec. (1.52 ticks)

Dual simplex solved model.

